Rotated POSCAR by SURFACE card in wt.in by WannierTools
1.0
    2.028879   -3.514142    0.000000
    0.000000    0.000000  -30.189237
    4.057776    0.000000    0.000000
La    N     
     1     2
Direct
    0.334181    0.507580    0.332766       La
    0.999947    0.535282    0.998865        N
    0.668415    0.479877    0.666667        N
