POSCAR for generated by WannierTools
1.0
    2.028879   -3.514142    0.000000
    0.000000    0.000000  -30.189237
   40.577760    0.000000    0.000000
La    N     
    10    20
Direct
   -0.665819   -0.492420    0.033277       La
   -0.000053   -0.464718    0.099887        N
   -0.331585   -0.520123    0.066667        N
   -0.665819   -0.492420    0.133277       La
   -0.000053   -0.464718    0.199887        N
   -0.331585   -0.520123    0.166667        N
   -0.665819   -0.492420    0.233277       La
   -0.000053   -0.464718    0.299887        N
   -0.331585   -0.520123    0.266667        N
   -0.665819   -0.492420    0.333277       La
   -0.000053   -0.464718    0.399887        N
   -0.331585   -0.520123    0.366667        N
   -0.665819   -0.492420    0.433277       La
   -0.000053   -0.464718    0.499887        N
   -0.331585   -0.520123    0.466667        N
   -0.665819   -0.492420    0.533277       La
   -0.000053   -0.464718    0.599887        N
   -0.331585   -0.520123    0.566667        N
   -0.665819   -0.492420    0.633277       La
   -0.000053   -0.464718    0.699887        N
   -0.331585   -0.520123    0.666667        N
   -0.665819   -0.492420    0.733277       La
   -0.000053   -0.464718    0.799887        N
   -0.331585   -0.520123    0.766667        N
   -0.665819   -0.492420    0.833277       La
   -0.000053   -0.464718    0.899887        N
   -0.331585   -0.520123    0.866667        N
   -0.665819   -0.492420    0.933277       La
   -0.000053   -0.464718    0.999887        N
   -0.331585   -0.520123    0.966667        N
