POSCAR for slab defined by SURFACE card and Nslab and Vacuum_thickness_in_Angstrom in wt.in by WannierTools
1.0
    2.028879   -3.514142    0.000000
    0.000000    0.000000  -30.189237
   52.798566    0.000000    0.000000
La    N     
    10    20
Cartesian
    7.940421   -1.174359  -15.323440       La
   11.998197   -1.174359  -15.323440       La
   16.055973   -1.174359  -15.323440       La
   20.113749   -1.174359  -15.323440       La
   24.171525   -1.174359  -15.323440       La
   28.229301   -1.174359  -15.323440       La
   32.287077   -1.174359  -15.323440       La
   36.344853   -1.174359  -15.323440       La
   40.402629   -1.174359  -15.323440       La
   44.460405   -1.174359  -15.323440       La
   11.994061   -3.513955  -16.159762        N
   16.051837   -3.513955  -16.159762        N
   20.109613   -3.513955  -16.159762        N
   24.167389   -3.513955  -16.159762        N
   28.225165   -3.513955  -16.159762        N
   32.282941   -3.513955  -16.159762        N
   36.340717   -3.513955  -16.159762        N
   40.398493   -3.513955  -16.159762        N
   44.456269   -3.513955  -16.159762        N
   48.514045   -3.513955  -16.159762        N
    9.973436   -2.348905  -14.487123        N
   14.031212   -2.348905  -14.487123        N
   18.088988   -2.348905  -14.487123        N
   22.146764   -2.348905  -14.487123        N
   26.204540   -2.348905  -14.487123        N
   30.262316   -2.348905  -14.487123        N
   34.320092   -2.348905  -14.487123        N
   38.377868   -2.348905  -14.487123        N
   42.435644   -2.348905  -14.487123        N
   46.493420   -2.348905  -14.487123        N
