POSCAR for generated by WannierTools
1.0
    4.057776    0.000000    0.000000
   -2.028879    3.514142    0.000000
    0.000000    0.000000   30.189237
La    N     
     1     2
Direct
    0.332766    0.665819    0.492420       La
    0.998865    0.000053    0.464718        N
    0.666667    0.331585    0.520123        N
